c WARNING: for repeatability, setting FPU to use double precision
d VARIABLES            66930        
d CONSTRAINTS          236372       
c ============================[ Problem Statistics ]=============================
c |                                                                             |
c |  Number of variables:         66930                                         |
c |  Number of clauses:          236372                                         |
c |  Parse time:                   0.04 s                                       |
c |                                                                             |
c ============================[ Search Statistics ]==============================
c | Conflicts |          ORIGINAL         |          LEARNT          | Progress |
c |           |    Vars  Clauses Literals |    Limit  Clauses Lit/Cl |          |
c ===============================================================================
c |       100 |   49272   191526   482539 |    70226      100      5 | 26.383 % |
c |       250 |   49272   191526   482539 |    77248      250      9 | 26.383 % |
c |       475 |   49272   191526   482539 |    84973      475      8 | 26.383 % |
c |       812 |   49272   191526   482539 |    93471      812     14 | 26.383 % |
c |      1318 |   49272   191526   482539 |   102818     1318     18 | 26.383 % |
c |      2077 |   49272   191526   482539 |   113099     2077     18 | 26.383 % |
c |      3216 |   49272   191526   482539 |   124409     3216     42 | 26.383 % |
c |      4924 |   49271   191516   482516 |   136850     4922     39 | 26.384 % |
c |      7486 |   49268   191485   482443 |   150536     7478     42 | 26.389 % |
c |     11330 |   49255   191365   482164 |   165589    11284     41 | 26.408 % |
c ===============================================================================
c restarts              : 63
c conflicts             : 16194          (9306 /sec)
c decisions             : 77199          (0.00 % random) (44364 /sec)
c propagations          : 14124915       (8117263 /sec)
c conflict literals     : 623320         (31.77 % deleted)
d RESTARTS             63
d FAILURES             16194        
d NODES                77199        
d BACKTRACKS           77199        
d PROPAGATIONS         14124915     
d NOGOODSIZE           38.49 
d MEMORY               23.00 
d TIME                 1.74011 

s UNSATISFIABLE
